NAME: instance_3361
TYPE: TSP
DIMENSION: 20
EDGE_WEIGHT_TYPE: EUC_2D
NODE_COORD_SECTION
0 39.05 84.43
1 53.20 12.86
2 82.70 20.23
3 73.64 3.16
4 37.15 85.81
5 53.28 61.13
6 44.34 15.90
7 0.38 41.80
8 47.03 26.64
9 36.55 63.85
10 34.48 55.66
11 19.94 62.83
12 68.62 70.28
13 38.93 11.40
14 12.33 82.53
15 45.34 26.20
16 2.01 1.40
17 30.78 91.57
18 27.03 79.93
19 62.25 24.70
EOF
